3932.00 0
0 44 43 38 40 49 42 8 11 12 2 141 148 89 79 80 137 0
0 69 71 65 72 67 73 130 129 56 63 0
0 111 110 97 98 109 0
0 145 139 144 92 84 91 81 82 83 78 77 85 76 0
0 113 117 122 116 128 126 131 136 54 0
0 16 5 17 9 3 10 4 7 15 100 107 0
0 59 53 57 106 102 146 143 140 147 142 138 149 0
0 6 14 13 150 104 108 101 99 103 105 112 0
0 1 25 24 23 30 32 31 119 124 114 70 68 74 66 0
0 55 60 64 18 21 22 35 28 26 20 0
0 132 135 115 123 127 120 125 29 37 34 27 0
0 95 93 75 88 86 87 90 0
0 39 47 50 48 45 41 46 51 58 52 0
0 134 121 118 133 62 61 0
0 36 19 33 94 96 0